C  S  H                                 
    1.000000000000000     
    22.0000000000000000    0.0000000000000000    0.0000000000000000
     0.0000000000000000   22.0000000000000000    0.0000000000000000
     0.0000000000000000    0.0000000000000000   22.0000000000000000
  C               S               H             
    20     5    12
Direct
  0.5003683001626843  0.4822322377813997  0.2592931499084380
  0.5619420477954330  0.4743431247029632  0.2635909188457666
  0.5064894701315010  0.4292445586360436  0.3503777220444370
  0.4688551078566136  0.4566537262850377  0.3086708144076638
  0.4919896723044023  0.4001323746218763  0.4074879422006512
  0.4402805794649306  0.3658683364758651  0.4196445059851662
  0.5067560487545135  0.3779822711089886  0.5095013003113235
  0.5297052648832759  0.4061532634470926  0.4593587886643050
  0.3937767583609648  0.3442637808146272  0.3784657656685664
  0.3345510129049907  0.3310103768038049  0.3955944467180895
  0.3533713914532983  0.3094710400327678  0.2874674557637102
  0.4037379676554262  0.3314321786164089  0.3160397470253022
  0.3071996498566873  0.3381632158682792  0.4552687090131033
  0.2966432460214573  0.3943893108893467  0.4817472524688737
  0.2707713641384582  0.3084816780687002  0.5494121521194041
  0.2915737660966397  0.2894523866713959  0.4942262369994376
  0.3051776316018257  0.4540480865631429  0.4571891761875359
  0.3045780641378466  0.5084534619286506  0.4882599022124862
  0.3111757873345764  0.5593206694020604  0.4503061916884066
  0.3166186087886863  0.5434412207410958  0.3904350763007453
  0.5807510202716598  0.4357078464438388  0.3275351816970692
  0.4392526965367841  0.3441639662393607  0.4945515835418115
  0.2934739052788701  0.3038259301757534  0.3356653462909560
  0.2690819258201319  0.3855036602700551  0.5538863232967964
  0.3140877770493122  0.4669969026094301  0.3806629487393822
  0.4785728522501747  0.5062735194910134  0.2217215033473404
  0.5971796720707321  0.4894295027826154  0.2322463789695356
  0.4195625312661295  0.4585468835936933  0.3151015509387645
  0.5256377930468801  0.3767650384773227  0.5552643045923293
  0.5718063785458637  0.4325564303951382  0.4591059286962697
  0.3488705328558981  0.2954498277337632  0.2401832530581039
  0.4474578980539314  0.3380838925080973  0.2935280951904752
  0.2563224191171241  0.2810490921345564  0.5880095597135183
  0.2971106736103381  0.2417821118559311  0.4814845190126113
  0.2997121691008205  0.5107605008782392  0.5376889153132828
  0.3123944259021262  0.6062313545061732  0.4664471228539274
  0.3231464325190182  0.5730726974454561  0.3512870022144049
 
  0.00000000E+00  0.00000000E+00  0.00000000E+00
  0.00000000E+00  0.00000000E+00  0.00000000E+00
  0.00000000E+00  0.00000000E+00  0.00000000E+00
  0.00000000E+00  0.00000000E+00  0.00000000E+00
  0.00000000E+00  0.00000000E+00  0.00000000E+00
  0.00000000E+00  0.00000000E+00  0.00000000E+00
  0.00000000E+00  0.00000000E+00  0.00000000E+00
  0.00000000E+00  0.00000000E+00  0.00000000E+00
  0.00000000E+00  0.00000000E+00  0.00000000E+00
  0.00000000E+00  0.00000000E+00  0.00000000E+00
  0.00000000E+00  0.00000000E+00  0.00000000E+00
  0.00000000E+00  0.00000000E+00  0.00000000E+00
  0.00000000E+00  0.00000000E+00  0.00000000E+00
  0.00000000E+00  0.00000000E+00  0.00000000E+00
  0.00000000E+00  0.00000000E+00  0.00000000E+00
  0.00000000E+00  0.00000000E+00  0.00000000E+00
  0.00000000E+00  0.00000000E+00  0.00000000E+00
  0.00000000E+00  0.00000000E+00  0.00000000E+00
  0.00000000E+00  0.00000000E+00  0.00000000E+00
  0.00000000E+00  0.00000000E+00  0.00000000E+00
  0.00000000E+00  0.00000000E+00  0.00000000E+00
  0.00000000E+00  0.00000000E+00  0.00000000E+00
  0.00000000E+00  0.00000000E+00  0.00000000E+00
  0.00000000E+00  0.00000000E+00  0.00000000E+00
  0.00000000E+00  0.00000000E+00  0.00000000E+00
  0.00000000E+00  0.00000000E+00  0.00000000E+00
  0.00000000E+00  0.00000000E+00  0.00000000E+00
  0.00000000E+00  0.00000000E+00  0.00000000E+00
  0.00000000E+00  0.00000000E+00  0.00000000E+00
  0.00000000E+00  0.00000000E+00  0.00000000E+00
  0.00000000E+00  0.00000000E+00  0.00000000E+00
  0.00000000E+00  0.00000000E+00  0.00000000E+00
  0.00000000E+00  0.00000000E+00  0.00000000E+00
  0.00000000E+00  0.00000000E+00  0.00000000E+00
  0.00000000E+00  0.00000000E+00  0.00000000E+00
  0.00000000E+00  0.00000000E+00  0.00000000E+00
  0.00000000E+00  0.00000000E+00  0.00000000E+00
