 System = molecule
 Staring parameters
 ISTART = 1
 ICHARG = 1

 Electronic relaxation
 PREC = Accurate
 ENCUT = 520
 ADDGRID = .TRUE.
 ALGO = Fast
 EDIFF = 1E-08
 NELM = 100
 NELMIN = 2
 NELMDL = -5

 Ionic relaxation
 EDIFFG = -0.001
 NSW = 1000
 IBRION = 2
 ISIF = 2
 POTIM = 0.1

 DOS related values
 ISMEAR = 0
 SIGMA = 0.01
 
 

