C  S  H  
  1.0000000000000
   22.000000000    0.000000000    0.000000000
    0.000000000   22.000000000    0.000000000
    0.000000000    0.000000000   22.000000000
C  S  H  
           20           5          12  
cart
   10.886729436   10.704847010    5.782190788
   12.214514422   10.571358006    5.798079782
   11.139247416    9.457259966    7.730862810
   10.255802436   10.055565982    6.915192812
   10.877736430    8.717751944    8.997256840
    9.829976442    7.903113922    9.267653846
   11.369854430    8.131813910   11.197156872
   11.775652416    8.837553934   10.143660868
    8.737218446    7.452878906    8.354721826
    7.432870456    7.312154894    8.678262824
    7.896728444    6.615275876    6.350514786
    8.993966454    7.036546880    6.975568798
    6.767781460    7.559697904    9.996929866
    6.449293466    8.755793948   10.543779862
    5.825408468    6.856204872   12.005926900
    6.384979458    6.451314870   10.866385882
    6.625620474   10.121059982    9.994363852
    6.723204466   11.261672026   10.702545876
    6.844825460   12.436228046    9.865186848
    6.824978468   12.131405044    8.565303824
   12.776540414    9.666409962    7.160828796
    9.900155430    7.275917902   10.895017870
    6.489171458    6.682447882    7.352974816
    5.708383472    8.576537926   12.113690886
    6.664626474   10.433522990    8.278464832
   10.330851432   11.235394016    5.022664768
   12.913017414   10.960572018    5.073753762
    9.189609440   10.067587970    7.082131804
   11.855942428    8.066597924   12.158166900
   12.665258408    9.450023968   10.119868858
    7.830337460    6.255060856    5.335599764
    9.979586430    7.064024880    6.535616802
    5.467632478    6.230575846   12.809018904
    6.556855470    5.419199830   10.596628878
    6.714391464   11.307310014   11.781771892
    6.940219462   13.436292078   10.262517870
    6.900654464   12.819228070    7.737285820
